
A = 1;
T = 7;
X = 6;
Y = 6;
Z = 2;
building = array2d(0..5, 0..5,
                   [0, 0, 0, 0, 0, 0, 0, 1, 1, 0, 0, 0, 0, 0, 1, 0, 0, 0, 0, 0, 0, 0, 0, 0, 0, 0, 0, 0, 0, 0,
                    0, 0, 0, 0, 0, 0]);
